r = [
0,98,136,176,25,42,27,21,86,122,110,143,136,169,177,173,54,154,142,42,22,68,182,45,83,93,0
];
p = [
0,10,7,5,28,4,28,7,2,4,4,1,5,1,14,25,25,7,28,12,27,24,29,24,23,19,0
];
e = [
0,18,1,1,19,18,10,18,8,3,5,10,11,13,14,7,3,6,11,17,9,13,9,1,16,14,0
];
d = [
0,268,343,411,182,215,181,143,357,251,212,259,361,339,425,268,200,282,327,220,182,330,316,179,241,300,432
];
d_bar = [
0,273,347,414,196,217,195,147,358,253,214,260,364,340,432,281,213,286,341,226,196,342,331,191,253,310,432
];
w = [
0,3.6,0.25,0.333333333,1.357142857,9,0.714285714,4.5,8,1.5,2.5,10,3.666666667,13,2,0.538461538,0.230769231,1.5,0.785714286,2.833333333,0.642857143,1.083333333,0.6,0.083333333,1.333333333,1.4,0
];
